NAME           ..\..\data\testlp.ltx
ROWS
 N       OBJ
 E  R09_____
 E  R10_____
 L  X05_____
 L  X21_____
 E  R12_____
 E  R13_____
 L  X17_____
 L  X18_____
 L  X19_____
 L  X20_____
 E  R19_____
 E  R20_____
 L  X27_____
 L  X44_____
 E  R22_____
 E  R23_____
 L  X40_____
 L  X41_____
 L  X42_____
 L  X43_____
 L  X45_____
 L  X46_____
 L  X47_____
 L  X48_____
 L  X49_____
 L  X50_____
 L  X51_____
COLUMNS
         X02       OBJ          -0.4
         X02  R09_____             1   X21_____             1
         X14       OBJ         -0.32
         X14  X21_____           1.4   R12_____           1.4
         X23       OBJ          -0.6
         X23  R19_____             1   X44_____             1
         X36       OBJ         -0.48
         X36  X44_____           1.4   R23_____           1.4
         X39       OBJ            10
         X39  R23_____             1
         X01  R09_____            -1   R10_____            -1
         X01  X05_____             1   X48_____             1
         X03  R09_____             1   X46_____             1
         X04  R10_____             1   X50_____             1
         X06  R12_____            -1   R13_____            -1
         X06  X17_____             1   X49_____             1
         X07  R12_____            -1   R13_____            -1
         X07  X18_____             1   X49_____             1
         X08  R12_____            -1   R13_____            -1
         X08  X19_____             1   X49_____             1
         X09  R12_____            -1   R13_____            -1
         X09  X20_____             1   X49_____             1
         X15  R12_____             1   X47_____             1
         X16  R13_____             1   X51_____             1
         X10  X17_____            -1   X45_____            -1
         X11  X18_____            -1   X45_____            -1
         X12  X19_____            -1   X45_____            -1
         X13  X20_____            -1   X45_____            -1
         X22  R19_____            -1   R20_____            -1
         X22  X27_____             1   X46_____             1
         X24  R19_____             1   X48_____             1
         X25  R19_____             1   X45_____             1
         X26  R20_____             1   X50_____             1
         X28  R22_____         -0.43   R23_____         -0.43
         X28  X40_____             1   X47_____             1
         X29  R22_____         -0.43   R23_____         -0.43
         X29  X41_____             1   X47_____             1
         X30  R22_____         -0.39   R23_____         -0.39
         X30  X42_____             1   X47_____             1
         X31  R22_____         -0.37   R23_____         -0.37
         X31  X43_____             1   X47_____             1
         X38  R22_____             1   X51_____             1
         X37  R23_____             1   X49_____             1
         X32  X40_____            -1   X45_____            -1
         X33  X41_____            -1   X45_____            -1
         X34  X42_____            -1   X45_____            -1
         X35  X43_____            -1   X45_____            -1
RHS
    RHS1      X05_____            80
    RHS1      X17_____            80
    RHS1      X27_____           500
    RHS1      R23_____            44
    RHS1      X40_____           500
    RHS1      X50_____           310
    RHS1      X51_____           300
BOUNDS
ENDATA
